; benchmark generated from python API
(set-info :status unknown)
(declare-datatypes ((RealState 0)) (((RMk1 (rval1 Real)) (RMk2 (rval2 Real)))))
 (assert
 (forall ((|v9:0| Real) )(exists ((|v8:1_st| RealState) (val!1100 Real) )(forall ((|v7:2| Real) )(exists ((|v6:3_st| RealState) (val!1101 Real) )(forall ((|v5:4| Real) )(exists ((|v4:5_st| RealState) (val!1102 Real) )(forall ((|v3:6| Real) )(exists ((|v2:7_st| RealState) (val!1103 Real) )(forall ((|v1:8| Real) )(exists ((|v0:9_st| RealState) (val!1104 Real) )(let ((?x1413 (rval2 |v2:7_st|)))
 (let (($x1037 (<= (+ (+ (* 11.0 (rval2 |v0:9_st|)) (* (- 8.0) (rval2 |v0:9_st|))) ?x1413) 7.0)))
 (let (($x616 (<= (+ (+ (* (- 20.0) (rval2 |v0:9_st|)) (* 19.0 ?x1413)) (* 13.0 |v1:8|)) 13.0)))
 (let ((?x1375 (+ (+ (* (- 13.0) (rval2 |v8:1_st|)) (* (- 3.0) |v5:4|)) (* (- 15.0) |v1:8|))))
 (let ((?x311 (- 10.0)))
 (let (($x1115 (<= (+ (+ (* 14.0 (rval2 |v4:5_st|)) (* 4.0 ?x1413)) (* (- 18.0) |v3:6|)) ?x311)))
 (let ((?x1275 (- 11.0)))
 (let ((?x133 (+ (+ (* (- 14.0) |v7:2|) (* (- 18.0) (rval2 |v0:9_st|))) (* 4.0 |v5:4|))))
 (let ((?x212 (- 12.0)))
 (let ((?x1343 (* 3.0 |v3:6|)))
 (let (($x185 (<= (+ (+ (* 2.0 (rval2 |v0:9_st|)) (* 14.0 (rval2 |v8:1_st|))) ?x1343) ?x212)))
 (let ((?x764 (- 1.0)))
 (let ((?x48 (+ (+ (* ?x311 (rval2 |v8:1_st|)) (* 7.0 (rval2 |v6:3_st|))) (* 19.0 (rval2 |v0:9_st|)))))
 (let ((?x410 (- 8.0)))
 (let ((?x90 (- 3.0)))
 (let ((?x515 (* ?x90 |v5:4|)))
 (let (($x683 (<= (+ (+ (* (- 2.0) |v1:8|) (* (- 13.0) (rval2 |v6:3_st|))) ?x515) ?x410)))
 (let (($x929 (or (or (and $x683 (<= ?x48 ?x764)) (and $x185 (<= ?x133 ?x1275))) (or (or $x1115 (<= ?x1375 12.0)) (and $x616 $x1037)))))
 (let ((?x902 (- 14.0)))
 (let ((?x63 (rval2 |v8:1_st|)))
 (let ((?x539 (* 8.0 ?x63)))
 (let ((?x780 (+ (+ (* 20.0 ?x1413) (* 5.0 (rval2 |v6:3_st|))) (* (- 18.0) (rval2 |v4:5_st|)))))
 (let (($x532 (and (<= (+ (+ (* 6.0 ?x63) (* 2.0 |v3:6|)) |v7:2|) 9.0) (<= ?x780 5.0))))
 (let (($x1202 (and $x532 (<= (+ (+ (* 3.0 (rval2 |v4:5_st|)) (* (- 4.0) |v7:2|)) ?x539) ?x902))))
 (let (($x175 (<= (+ (+ (* ?x902 ?x63) (* 3.0 |v5:4|)) (* (- 13.0) (rval2 |v0:9_st|))) 5.0)))
 (let ((?x286 (- 20.0)))
 (let (($x778 (<= (+ (+ (* 9.0 |v3:6|) (* (- 19.0) |v3:6|)) (* (- 13.0) |v1:8|)) ?x286)))
 (let ((?x750 (+ (+ (* (- 9.0) (rval2 |v0:9_st|)) (* 18.0 |v1:8|)) (* (- 4.0) |v3:6|))))
 (let ((?x654 (+ (+ (* 16.0 (rval2 |v4:5_st|)) (* (- 18.0) (rval2 |v0:9_st|))) (* ?x212 |v7:2|))))
 (let (($x334 (or (or (or (or (<= ?x654 ?x311) (<= ?x750 ?x311)) (and $x778 $x175)) $x1202) $x929)))
 (let ((?x1069 (+ (+ (* ?x90 (rval2 |v4:5_st|)) (* (- 6.0) ?x63)) (* (- 16.0) (rval2 |v6:3_st|)))))
 (let (($x534 (<= (+ (+ (* 20.0 ?x1413) (* 17.0 (rval2 |v4:5_st|))) (* 19.0 |v9:0|)) 15.0)))
 (let ((?x373 (- 17.0)))
 (let (($x45 (<= (+ (+ (* ?x1275 |v1:8|) (* 16.0 |v1:8|)) (* (- 15.0) |v7:2|)) ?x373)))
 (let ((?x480 (rval2 |v4:5_st|)))
 (let ((?x726 (* ?x90 ?x480)))
 (let (($x1356 (and (<= (+ (+ (* 11.0 ?x1413) (* 12.0 ?x480)) (* ?x286 |v1:8|)) 1.0) (<= (+ (+ (* 11.0 (rval2 |v0:9_st|)) (* 0.0 |v7:2|)) ?x726) ?x373))))
 (let (($x846 (<= (+ (+ (* 6.0 ?x480) (* 8.0 (rval2 |v0:9_st|))) (* 20.0 |v1:8|)) ?x90)))
 (let (($x1164 (<= (+ (+ (* 9.0 |v1:8|) (* (- 13.0) |v1:8|)) (* ?x90 (rval2 |v0:9_st|))) ?x212)))
 (let (($x635 (and (or (and $x1164 $x846) $x1356) (or (or $x45 $x534) (<= ?x1069 3.0)))))
 (let ((?x263 (- 13.0)))
 (let (($x525 (or (<= (+ (+ (* 7.0 |v9:0|) (* 18.0 |v1:8|)) (* ?x373 |v9:0|)) ?x263) $x635)))
 (let (($x945 (not (= |v0:9_st| (RMk1 val!1104)))))
 (let (($x729 (not (= |v2:7_st| (RMk1 val!1103)))))
 (let (($x655 (not (= |v4:5_st| (RMk1 val!1102)))))
 (let (($x501 (not (= |v6:3_st| (RMk1 val!1101)))))
 (let (($x699 (not (= |v8:1_st| (RMk1 val!1100)))))
 (and $x699 $x501 $x655 $x729 $x945 (and $x525 $x334))))))))))))))))))))))))))))))))))))))))))))))))))
 )
 )
 )
 )
 )
 )
 )
 )
 )
 )
(check-sat)
